248
3827
182
0 1
0 4
0 5
0 11
0 14
0 18
0 126
0 128
0 129
0 145
1 4
1 5
1 11
1 14
1 18
1 21
1 25
1 29
1 33
1 37
1 56
1 59
1 62
1 75
1 126
1 128
1 129
1 145
1 180
1 234
2 7
2 15
2 19
2 22
2 109
2 125
2 127
2 131
2 136
2 143
2 146
2 163
3 6
3 8
3 9
3 10
3 12
3 13
3 16
3 17
3 26
3 27
3 28
3 31
3 36
3 45
3 47
3 71
3 73
3 75
3 77
3 81
3 85
3 88
3 90
3 92
3 95
3 98
3 106
3 108
3 110
3 111
3 113
3 115
3 117
3 121
3 122
3 123
3 130
3 132
3 133
3 148
3 152
3 153
3 165
3 168
3 204
3 221
3 235
4 5
4 11
4 14
4 18
4 23
4 24
4 30
4 32
4 34
4 35
4 40
4 44
4 49
4 50
4 54
4 126
4 128
4 129
4 145
5 11
5 14
5 18
5 23
5 24
5 30
5 32
5 34
5 35
5 40
5 44
5 49
5 50
5 54
5 60
5 61
5 63
5 64
5 66
5 126
5 128
5 129
5 145
5 183
5 185
5 201
5 218
5 239
6 8
6 9
6 10
6 12
6 13
6 16
6 17
6 26
6 27
6 28
6 31
6 36
6 45
6 47
6 98
6 106
6 108
6 110
6 111
6 113
6 115
6 117
6 121
6 122
6 123
6 130
6 132
6 133
6 152
6 153
6 168
6 204
6 221
7 11
7 15
7 19
7 22
7 25
7 29
7 33
7 37
7 41
7 42
7 43
7 46
7 48
7 51
7 52
7 53
7 55
7 62
7 109
7 125
7 127
7 131
7 136
7 143
7 146
7 163
8 9
8 10
8 12
8 13
8 16
8 17
8 26
8 27
8 28
8 31
8 36
8 45
8 47
8 98
8 130
8 132
8 133
8 152
8 153
8 168
8 204
8 221
9 10
9 12
9 13
9 16
9 17
9 26
9 27
9 28
9 31
9 36
9 45
9 47
9 98
10 12
10 13
10 16
10 17
10 26
10 27
10 28
10 31
10 36
10 45
10 47
10 98
10 112
10 116
10 118
10 119
10 120
10 134
10 135
10 137
10 138
10 139
10 140
10 141
10 142
11 14
11 15
11 18
11 19
11 21
11 25
11 29
11 30
11 33
11 37
11 41
11 42
11 43
11 46
11 48
11 51
11 52
11 53
11 55
11 56
11 59
11 62
11 66
11 75
11 82
11 83
11 87
11 100
11 101
11 103
11 115
11 117
11 126
11 128
11 129
11 131
11 136
11 143
11 145
11 180
11 234
11 242
11 244
12 13
12 16
12 17
12 26
12 27
12 28
12 31
12 36
12 45
12 47
12 98
12 112
12 116
12 118
12 119
12 120
12 134
12 135
12 137
12 138
12 139
12 140
12 141
12 142
12 147
12 148
12 150
12 155
12 184
12 188
12 189
12 200
12 203
12 207
12 220
12 224
12 243
13 16
13 17
13 26
13 27
13 28
13 31
13 36
13 45
13 47
13 98
13 103
13 112
13 116
13 118
13 119
13 120
13 134
13 135
13 137
13 138
13 139
13 140
13 141
13 142
13 149
13 151
13 156
13 157
13 158
13 172
13 196
13 197
13 199
13 208
13 226
13 228
14 18
14 23
14 24
14 30
14 32
14 34
14 35
14 40
14 44
14 49
14 50
14 54
14 65
14 67
14 68
14 69
14 70
14 81
14 85
14 88
14 90
14 123
14 126
14 128
14 129
14 145
15 19
15 22
15 25
15 29
15 33
15 37
15 41
15 42
15 43
15 46
15 48
15 51
15 52
15 53
15 55
15 62
15 76
15 84
15 86
15 89
15 99
15 102
15 104
15 105
15 109
15 121
15 122
15 125
15 127
15 131
15 136
15 140
15 143
15 146
15 157
15 163
15 173
15 176
15 188
15 191
15 227
15 246
16 17
16 26
16 27
16 28
16 31
16 36
16 45
16 47
16 98
16 103
16 112
16 116
16 118
16 119
16 120
16 134
16 135
16 137
16 138
16 139
16 140
16 141
16 142
16 149
16 151
16 156
16 158
16 172
16 226
16 228
17 26
17 27
17 28
17 31
17 36
17 45
17 47
17 52
17 87
17 98
17 112
17 116
17 118
17 119
17 120
17 134
17 135
17 137
17 138
17 139
17 140
17 141
17 142
17 157
17 159
17 160
17 171
17 173
17 174
17 175
18 23
18 24
18 30
18 32
18 34
18 35
18 40
18 44
18 49
18 50
18 54
18 65
18 67
18 68
18 69
18 70
18 81
18 85
18 88
18 90
18 123
18 126
18 128
18 129
18 142
18 145
18 179
18 181
18 188
18 191
18 192
18 194
19 22
19 25
19 29
19 33
19 37
19 41
19 42
19 43
19 46
19 48
19 51
19 52
19 53
19 55
19 62
19 76
19 84
19 86
19 89
19 99
19 102
19 104
19 105
19 109
19 121
19 122
19 125
19 127
19 131
19 136
19 143
19 146
19 163
19 176
20 22
20 26
20 27
20 28
20 31
20 36
20 57
20 71
20 177
20 196
20 231
21 25
21 29
21 33
21 37
21 56
21 59
21 62
21 75
21 128
21 180
21 234
22 26
22 27
22 28
22 31
22 36
22 57
22 71
22 109
22 125
22 127
22 131
22 136
22 143
22 146
22 163
22 177
22 196
22 231
23 24
23 30
23 32
23 34
23 35
23 40
23 44
23 49
23 50
23 54
23 129
24 30
24 32
24 34
24 35
24 40
24 44
24 49
24 50
24 54
24 60
24 61
24 63
24 64
24 66
24 129
24 183
24 185
24 201
24 218
24 239
25 29
25 33
25 37
25 41
25 42
25 43
25 46
25 48
25 51
25 52
25 53
25 55
25 56
25 59
25 62
25 75
25 128
25 131
25 136
25 143
25 180
25 234
26 27
26 28
26 31
26 36
26 45
26 47
26 57
26 71
26 98
26 130
26 132
26 133
26 152
26 153
26 168
26 177
26 196
26 204
26 221
26 231
27 28
27 31
27 36
27 45
27 47
27 57
27 71
27 98
27 177
27 196
27 231
28 31
28 36
28 45
28 47
28 57
28 71
28 98
28 112
28 116
28 118
28 119
28 120
28 134
28 135
28 137
28 138
28 139
28 140
28 141
28 142
28 177
28 196
28 231
29 30
29 33
29 37
29 41
29 42
29 43
29 46
29 48
29 51
29 52
29 53
29 55
29 56
29 59
29 62
29 66
29 75
29 82
29 83
29 87
29 100
29 101
29 103
29 115
29 117
29 128
29 131
29 136
29 143
29 163
29 168
29 169
29 170
29 171
29 172
29 173
29 174
29 175
29 180
29 234
29 242
29 244
30 32
30 34
30 35
30 40
30 44
30 46
30 48
30 49
30 50
30 52
30 54
30 60
30 61
30 63
30 64
30 66
30 74
30 76
30 78
30 82
30 83
30 84
30 86
30 87
30 89
30 100
30 101
30 103
30 106
30 113
30 115
30 117
30 121
30 122
30 129
30 132
30 136
30 152
30 183
30 185
30 201
30 218
30 239
30 242
30 244
31 36
31 45
31 47
31 57
31 71
31 98
31 112
31 116
31 118
31 119
31 120
31 134
31 135
31 137
31 138
31 139
31 140
31 141
31 142
31 147
31 148
31 150
31 155
31 177
31 184
31 188
31 189
31 196
31 200
31 203
31 207
31 220
31 224
31 231
31 243
32 34
32 35
32 40
32 44
32 49
32 50
32 54
32 65
32 67
32 68
32 69
32 70
32 81
32 85
32 88
32 90
32 123
32 129
33 37
33 41
33 42
33 43
33 46
33 48
33 51
33 52
33 53
33 55
33 56
33 59
33 62
33 75
33 76
33 84
33 86
33 89
33 99
33 102
33 104
33 105
33 121
33 122
33 128
33 131
33 136
33 140
33 143
33 157
33 173
33 176
33 180
33 188
33 191
33 227
33 234
33 246
34 35
34 40
34 44
34 49
34 50
34 54
34 65
34 67
34 68
34 69
34 70
34 81
34 85
34 88
34 90
34 123
34 129
34 184
34 186
34 187
34 189
34 190
34 193
35 40
35 44
35 49
35 50
35 53
35 54
35 65
35 67
35 68
35 69
35 70
35 81
35 85
35 88
35 90
35 99
35 104
35 121
35 123
35 129
35 142
35 179
35 181
35 188
35 191
35 192
35 194
35 209
35 240
35 241
35 243
35 247
36 45
36 47
36 52
36 57
36 71
36 87
36 98
36 112
36 116
36 118
36 119
36 120
36 134
36 135
36 137
36 138
36 139
36 140
36 141
36 142
36 157
36 159
36 160
36 171
36 173
36 174
36 175
36 177
36 196
36 231
37 41
37 42
37 43
37 46
37 48
37 51
37 52
37 53
37 55
37 56
37 59
37 62
37 75
37 76
37 84
37 86
37 89
37 99
37 102
37 104
37 105
37 121
37 122
37 128
37 131
37 136
37 143
37 176
37 180
37 234
38 45
38 47
38 56
38 91
38 98
38 106
38 161
38 211
38 230
39 40
39 44
39 49
39 50
39 54
39 93
39 125
39 162
39 179
39 214
39 232
40 44
40 49
40 50
40 54
40 93
40 125
40 129
40 162
40 179
40 214
40 232
41 42
41 43
41 46
41 48
41 51
41 52
41 53
41 55
41 62
41 92
41 95
41 96
41 97
41 131
41 136
41 143
41 148
41 150
41 165
41 166
41 200
41 217
41 235
41 236
41 238
42 43
42 46
42 48
42 51
42 52
42 53
42 55
42 62
42 131
42 136
42 143
43 44
43 46
43 48
43 51
43 52
43 53
43 55
43 62
43 63
43 64
43 72
43 79
43 80
43 92
43 95
43 96
43 97
43 131
43 136
43 143
43 148
43 150
43 165
43 166
43 185
43 200
43 217
43 235
43 236
43 238
43 239
44 49
44 50
44 54
44 60
44 61
44 63
44 64
44 66
44 72
44 79
44 80
44 93
44 97
44 125
44 129
44 162
44 179
44 183
44 185
44 201
44 214
44 218
44 232
44 238
44 239
45 47
45 56
45 91
45 98
45 106
45 161
45 211
45 230
46 48
46 51
46 52
46 53
46 55
46 62
46 66
46 82
46 83
46 87
46 100
46 101
46 103
46 115
46 117
46 131
46 136
46 143
46 163
46 168
46 169
46 170
46 171
46 172
46 173
46 174
46 175
46 242
46 244
47 56
47 91
47 98
47 106
47 112
47 116
47 118
47 119
47 120
47 134
47 135
47 137
47 138
47 139
47 140
47 141
47 142
47 161
47 211
47 230
48 51
48 52
48 53
48 55
48 62
48 66
48 82
48 83
48 87
48 100
48 101
48 103
48 115
48 117
48 131
48 136
48 143
48 242
48 244
49 50
49 54
49 65
49 67
49 68
49 69
49 70
49 81
49 85
49 88
49 90
49 93
49 123
49 125
49 129
49 162
49 179
49 214
49 232
50 54
50 65
50 67
50 68
50 69
50 70
50 81
50 85
50 88
50 90
50 93
50 123
50 125
50 129
50 162
50 179
50 184
50 186
50 187
50 189
50 190
50 193
50 214
50 232
51 52
51 53
51 55
51 62
51 76
51 84
51 86
51 89
51 99
51 102
51 104
51 105
51 121
51 122
51 131
51 136
51 140
51 143
51 157
51 173
51 176
51 188
51 191
51 227
51 246
52 53
52 55
52 62
52 66
52 82
52 83
52 87
52 100
52 101
52 103
52 115
52 117
52 120
52 131
52 136
52 138
52 140
52 141
52 143
52 157
52 159
52 160
52 163
52 168
52 169
52 170
52 171
52 172
52 173
52 174
52 175
52 242
52 244
53 55
53 62
53 69
53 76
53 84
53 86
53 88
53 89
53 99
53 102
53 104
53 105
53 121
53 122
53 131
53 136
53 143
53 176
53 192
53 209
53 240
53 241
53 243
53 247
54 65
54 67
54 68
54 69
54 70
54 81
54 85
54 88
54 90
54 93
54 123
54 125
54 129
54 142
54 162
54 179
54 181
54 188
54 191
54 192
54 194
54 214
54 232
55 62
55 76
55 84
55 86
55 89
55 99
55 102
55 104
55 105
55 121
55 122
55 131
55 136
55 143
55 176
56 57
56 58
56 59
56 62
56 71
56 73
56 75
56 91
56 92
56 98
56 106
56 108
56 128
56 161
56 177
56 178
56 180
56 196
56 197
56 211
56 213
56 230
56 231
56 234
57 58
57 59
57 62
57 71
57 73
57 75
57 92
57 108
57 177
57 178
57 180
57 196
57 197
57 213
57 231
57 234
58 59
58 62
58 71
58 73
58 75
58 92
58 108
58 177
58 178
58 180
58 196
58 197
58 213
58 231
58 234
59 62
59 71
59 73
59 75
59 92
59 108
59 128
59 177
59 178
59 180
59 196
59 197
59 213
59 231
59 234
60 61
60 63
60 64
60 66
60 183
60 185
60 201
60 218
60 239
61 63
61 64
61 66
61 74
61 76
61 78
61 82
61 83
61 84
61 86
61 87
61 89
61 106
61 113
61 115
61 117
61 121
61 122
61 132
61 152
61 183
61 185
61 201
61 218
61 239
62 71
62 73
62 75
62 92
62 108
62 128
62 131
62 136
62 143
62 177
62 178
62 180
62 196
62 197
62 213
62 231
62 234
63 64
63 66
63 72
63 79
63 80
63 97
63 183
63 185
63 201
63 218
63 238
63 239
64 66
64 72
64 79
64 80
64 97
64 107
64 109
64 112
64 114
64 116
64 118
64 119
64 120
64 183
64 185
64 201
64 218
64 238
64 239
65 67
65 68
65 69
65 70
65 81
65 85
65 88
65 90
65 123
65 184
65 186
65 187
65 188
65 189
65 190
65 193
65 195
65 200
65 203
65 204
65 205
65 206
65 207
66 74
66 76
66 78
66 82
66 83
66 84
66 86
66 87
66 89
66 100
66 101
66 103
66 106
66 113
66 115
66 117
66 121
66 122
66 132
66 136
66 152
66 183
66 185
66 201
66 218
66 239
66 242
66 244
67 68
67 69
67 70
67 81
67 85
67 88
67 90
67 123
68 69
68 70
68 81
68 85
68 88
68 90
68 123
68 184
68 186
68 187
68 189
68 190
68 193
69 70
69 81
69 85
69 88
69 90
69 99
69 104
69 121
69 123
69 142
69 179
69 181
69 188
69 191
69 192
69 194
69 209
69 240
69 241
69 243
69 247
70 81
70 85
70 88
70 90
70 123
70 142
70 179
70 181
70 188
70 191
70 192
70 194
71 73
71 75
71 77
71 81
71 85
71 88
71 90
71 92
71 95
71 108
71 110
71 123
71 148
71 165
71 177
71 178
71 180
71 196
71 197
71 213
71 231
71 234
71 235
72 79
72 80
72 97
72 107
72 109
72 112
72 114
72 116
72 118
72 119
72 120
72 124
72 125
72 126
72 127
72 128
72 129
72 131
72 136
72 143
72 144
72 145
72 146
72 163
72 185
72 195
72 212
72 238
72 239
73 75
73 77
73 81
73 85
73 88
73 90
73 92
73 95
73 108
73 110
73 123
73 148
73 165
73 177
73 178
73 180
73 196
73 197
73 213
73 231
73 234
73 235
74 76
74 78
74 82
74 83
74 84
74 86
74 87
74 89
74 91
74 93
74 94
74 98
74 106
74 113
74 115
74 117
74 121
74 122
74 132
74 147
74 152
74 161
74 162
74 164
74 179
74 181
74 198
74 211
74 214
74 215
74 230
74 232
74 233
75 77
75 81
75 85
75 88
75 90
75 92
75 95
75 108
75 110
75 123
75 128
75 148
75 165
75 177
75 178
75 180
75 196
75 197
75 213
75 231
75 234
75 235
76 78
76 82
76 83
76 84
76 86
76 87
76 89
76 99
76 102
76 104
76 105
76 106
76 113
76 115
76 117
76 121
76 122
76 132
76 138
76 143
76 149
76 152
76 171
76 176
76 177
76 178
76 180
76 182
76 183
76 185
76 196
76 197
76 199
76 201
76 213
76 216
76 218
76 225
76 231
76 234
76 239
76 245
77 81
77 85
77 88
77 90
77 92
77 95
77 108
77 110
77 123
77 148
77 165
77 235
78 82
78 83
78 84
78 86
78 87
78 89
78 106
78 113
78 115
78 117
78 121
78 122
78 132
78 152
79 80
79 97
79 185
79 238
79 239
80 97
80 107
80 109
80 112
80 114
80 116
80 118
80 119
80 120
80 185
80 238
80 239
81 85
81 88
81 90
81 92
81 95
81 108
81 110
81 123
81 148
81 165
81 184
81 186
81 187
81 188
81 189
81 190
81 193
81 195
81 200
81 203
81 204
81 205
81 206
81 207
81 235
82 83
82 84
82 86
82 87
82 89
82 100
82 101
82 103
82 106
82 113
82 115
82 117
82 121
82 122
82 132
82 136
82 152
82 163
82 168
82 169
82 170
82 171
82 172
82 173
82 174
82 175
82 242
82 244
83 84
83 86
83 87
83 89
83 100
83 101
83 103
83 106
83 113
83 115
83 117
83 121
83 122
83 132
83 136
83 152
83 242
83 244
84 86
84 87
84 89
84 99
84 102
84 104
84 105
84 106
84 113
84 115
84 117
84 121
84 122
84 132
84 138
84 143
84 152
84 171
84 176
84 201
84 213
84 216
84 218
84 225
84 231
84 234
84 239
84 245
85 88
85 90
85 92
85 95
85 108
85 110
85 123
85 148
85 165
85 184
85 186
85 187
85 189
85 190
85 193
85 235
86 87
86 89
86 99
86 102
86 104
86 105
86 106
86 113
86 115
86 117
86 121
86 122
86 132
86 140
86 143
86 152
86 157
86 173
86 176
86 188
86 191
86 227
86 246
87 89
87 100
87 101
87 103
87 106
87 113
87 115
87 117
87 120
87 121
87 122
87 132
87 136
87 138
87 140
87 141
87 152
87 157
87 159
87 160
87 163
87 168
87 169
87 170
87 171
87 172
87 173
87 174
87 175
87 242
87 244
88 90
88 92
88 95
88 99
88 104
88 108
88 110
88 121
88 123
88 142
88 148
88 165
88 179
88 181
88 188
88 191
88 192
88 194
88 209
88 235
88 240
88 241
88 243
88 247
89 99
89 102
89 104
89 105
89 106
89 113
89 115
89 117
89 121
89 122
89 132
89 143
89 152
89 176
90 92
90 95
90 108
90 110
90 123
90 142
90 148
90 165
90 179
90 181
90 188
90 191
90 192
90 194
90 235
91 93
91 94
91 98
91 106
91 147
91 161
91 162
91 164
91 179
91 181
91 198
91 211
91 214
91 215
91 230
91 232
91 233
92 95
92 96
92 97
92 108
92 110
92 123
92 148
92 150
92 165
92 166
92 177
92 178
92 180
92 196
92 197
92 200
92 213
92 217
92 231
92 234
92 235
92 236
92 238
93 94
93 98
93 106
93 125
93 147
93 161
93 162
93 164
93 179
93 181
93 198
93 211
93 214
93 215
93 230
93 232
93 233
94 98
94 106
94 147
94 161
94 162
94 164
94 179
94 181
94 198
94 211
94 214
94 215
94 230
94 232
94 233
95 96
95 97
95 108
95 110
95 123
95 148
95 150
95 165
95 166
95 200
95 217
95 235
95 236
95 238
96 97
96 148
96 150
96 165
96 166
96 200
96 217
96 235
96 236
96 238
97 148
97 150
97 165
97 166
97 185
97 200
97 217
97 235
97 236
97 238
97 239
98 106
98 147
98 161
98 162
98 164
98 179
98 181
98 198
98 211
98 214
98 215
98 230
98 232
98 233
99 102
99 104
99 105
99 121
99 122
99 143
99 176
99 192
99 209
99 212
99 220
99 221
99 222
99 223
99 224
99 226
99 228
99 240
99 241
99 243
99 247
100 101
100 103
100 115
100 117
100 136
100 163
100 168
100 169
100 170
100 171
100 172
100 173
100 174
100 175
100 242
100 244
101 103
101 115
101 117
101 136
101 242
101 244
102 104
102 105
102 121
102 122
102 138
102 143
102 171
102 176
102 201
102 213
102 216
102 218
102 225
102 231
102 234
102 239
102 245
103 115
103 117
103 118
103 119
103 136
103 137
103 139
103 142
103 149
103 151
103 156
103 158
103 163
103 168
103 169
103 170
103 171
103 172
103 173
103 174
103 175
103 226
103 228
103 242
103 244
104 105
104 121
104 122
104 143
104 176
104 192
104 209
104 240
104 241
104 243
104 247
105 121
105 122
105 143
105 176
106 108
106 110
106 111
106 113
106 115
106 117
106 121
106 122
106 123
106 130
106 132
106 147
106 152
106 161
106 162
106 164
106 179
106 181
106 198
106 211
106 214
106 215
106 230
106 232
106 233
107 109
107 112
107 114
107 116
107 118
107 119
107 120
107 124
107 125
107 126
107 127
107 128
107 129
107 131
107 136
107 143
107 144
107 145
107 146
107 163
107 195
107 212
108 110
108 111
108 113
108 115
108 117
108 121
108 122
108 123
108 130
108 132
108 148
108 152
108 165
108 177
108 178
108 180
108 196
108 197
108 213
108 231
108 234
108 235
109 112
109 114
109 116
109 118
109 119
109 120
109 124
109 125
109 126
109 127
109 128
109 129
109 131
109 136
109 143
109 144
109 145
109 146
109 163
109 195
109 212
110 111
110 113
110 115
110 117
110 121
110 122
110 123
110 130
110 132
110 148
110 152
110 165
110 235
111 113
111 115
111 117
111 121
111 122
111 123
111 130
111 132
111 152
112 114
112 116
112 118
112 119
112 120
112 134
112 135
112 137
112 138
112 139
112 140
112 141
112 142
112 147
112 148
112 150
112 155
112 161
112 162
112 164
112 165
112 166
112 167
112 176
112 184
112 188
112 189
112 200
112 203
112 207
112 220
112 224
112 243
113 115
113 117
113 121
113 122
113 123
113 130
113 132
113 152
114 116
114 118
114 119
114 120
115 117
115 121
115 122
115 123
115 130
115 132
115 136
115 152
115 163
115 168
115 169
115 170
115 171
115 172
115 173
115 174
115 175
115 242
115 244
116 118
116 119
116 120
116 134
116 135
116 137
116 138
116 139
116 140
116 141
116 142
117 121
117 122
117 123
117 130
117 132
117 136
117 152
117 242
117 244
118 119
118 120
118 134
118 135
118 137
118 138
118 139
118 140
118 141
118 142
118 149
118 151
118 156
118 157
118 158
118 172
118 196
118 197
118 199
118 208
118 226
118 228
119 120
119 134
119 135
119 137
119 138
119 139
119 140
119 141
119 142
119 149
119 151
119 156
119 158
119 172
119 226
119 228
120 134
120 135
120 137
120 138
120 139
120 140
120 141
120 142
120 157
120 159
120 160
120 171
120 173
120 174
120 175
121 122
121 123
121 130
121 132
121 143
121 152
121 176
121 192
121 209
121 240
121 241
121 243
121 247
122 123
122 130
122 132
122 143
122 152
122 176
123 130
123 132
123 142
123 148
123 152
123 165
123 179
123 181
123 188
123 191
123 192
123 194
123 235
124 125
124 126
124 127
124 128
124 129
124 131
124 136
124 143
124 144
124 145
124 146
124 163
124 195
124 212
125 126
125 127
125 128
125 129
125 131
125 136
125 143
125 144
125 145
125 146
125 162
125 163
125 179
125 195
125 212
125 214
125 232
126 127
126 128
126 129
126 131
126 136
126 143
126 144
126 145
126 146
126 163
126 195
126 212
127 128
127 129
127 131
127 136
127 143
127 144
127 145
127 146
127 163
127 195
127 212
128 129
128 131
128 136
128 143
128 144
128 145
128 146
128 163
128 180
128 195
128 212
128 234
129 131
129 136
129 143
129 144
129 145
129 146
129 163
129 195
129 212
130 132
130 133
130 152
130 153
130 168
130 204
130 221
131 136
131 143
131 144
131 145
131 146
131 163
131 195
131 212
132 133
132 152
132 153
132 168
132 204
132 221
133 152
133 153
133 168
133 204
133 221
134 135
134 137
134 138
134 139
134 140
134 141
134 142
135 137
135 138
135 139
135 140
135 141
135 142
135 147
135 148
135 150
135 155
135 184
135 188
135 189
135 200
135 203
135 207
135 220
135 224
135 243
136 143
136 144
136 145
136 146
136 163
136 195
136 212
136 242
136 244
137 138
137 139
137 140
137 141
137 142
137 149
137 151
137 156
137 157
137 158
137 172
137 196
137 197
137 199
137 208
137 226
137 228
138 139
138 140
138 141
138 142
138 157
138 159
138 160
138 171
138 173
138 174
138 175
138 201
138 211
138 213
138 214
138 215
138 216
138 217
138 218
138 219
138 225
138 227
138 229
138 231
138 234
138 239
138 245
139 140
139 141
139 142
139 149
139 151
139 156
139 158
139 172
139 226
139 228
140 141
140 142
140 157
140 159
140 160
140 171
140 173
140 174
140 175
140 188
140 191
140 211
140 213
140 214
140 215
140 216
140 217
140 218
140 219
140 225
140 227
140 229
140 246
141 142
141 157
141 159
141 160
141 171
141 173
141 174
141 175
142 149
142 151
142 156
142 157
142 158
142 172
142 179
142 181
142 188
142 191
142 192
142 194
142 196
142 197
142 199
142 208
142 226
142 228
143 144
143 145
143 146
143 163
143 176
143 195
143 212
144 145
144 146
144 152
144 153
144 154
144 163
144 168
144 169
144 186
144 195
144 204
144 205
144 212
144 221
144 222
144 240
145 146
145 152
145 153
145 154
145 163
145 168
145 169
145 186
145 195
145 204
145 205
145 212
145 221
145 222
145 240
146 152
146 153
146 154
146 163
146 168
146 169
146 186
146 195
146 204
146 205
146 212
146 221
146 222
146 240
147 148
147 150
147 155
147 161
147 162
147 164
147 165
147 166
147 167
147 176
147 179
147 181
147 184
147 188
147 189
147 198
147 200
147 203
147 207
147 211
147 214
147 215
147 220
147 224
147 230
147 232
147 233
147 243
148 150
148 155
148 161
148 162
148 164
148 165
148 166
148 167
148 176
148 184
148 188
148 189
148 200
148 203
148 207
148 217
148 220
148 224
148 235
148 236
148 238
148 243
149 151
149 156
149 157
149 158
149 172
149 177
149 178
149 180
149 182
149 183
149 185
149 196
149 197
149 199
149 201
149 208
149 213
149 216
149 218
149 226
149 228
149 231
149 234
149 239
150 155
150 161
150 162
150 164
150 165
150 166
150 167
150 176
150 184
150 188
150 189
150 200
150 203
150 207
150 217
150 220
150 224
150 235
150 236
150 238
150 243
151 156
151 158
151 172
151 179
151 181
151 193
151 198
151 201
151 202
151 209
151 210
151 211
151 214
151 215
151 217
151 219
151 226
151 228
151 230
151 232
151 233
151 235
151 236
151 237
151 238
151 242
151 244
152 153
152 154
152 163
152 168
152 169
152 186
152 195
152 204
152 205
152 212
152 221
152 222
152 240
153 154
153 163
153 168
153 169
153 186
153 195
153 204
153 205
153 212
153 221
153 222
153 240
154 163
154 168
154 169
154 186
154 195
154 204
154 205
154 212
154 221
154 222
154 240
155 184
155 188
155 189
155 200
155 203
155 207
155 220
155 224
155 243
156 157
156 158
156 172
156 196
156 197
156 199
156 208
156 226
156 228
157 159
157 160
157 171
157 172
157 173
157 174
157 175
157 188
157 191
157 196
157 197
157 199
157 208
157 211
157 213
157 214
157 215
157 216
157 217
157 218
157 219
157 225
157 226
157 227
157 229
157 246
158 172
158 226
158 228
159 160
159 171
159 173
159 174
159 175
160 171
160 173
160 174
160 175
160 211
160 213
160 214
160 215
160 216
160 217
160 218
160 219
160 225
160 227
160 229
161 162
161 164
161 165
161 166
161 167
161 176
161 179
161 181
161 184
161 198
161 200
161 203
161 211
161 214
161 215
161 220
161 230
161 232
161 233
162 164
162 165
162 166
162 167
162 176
162 179
162 181
162 184
162 198
162 200
162 203
162 211
162 214
162 215
162 220
162 230
162 232
162 233
163 168
163 169
163 170
163 171
163 172
163 173
163 174
163 175
163 186
163 195
163 204
163 205
163 212
163 221
163 222
163 240
163 242
164 165
164 166
164 167
164 176
164 179
164 181
164 184
164 198
164 200
164 203
164 211
164 214
164 215
164 220
164 230
164 232
164 233
165 166
165 167
165 176
165 184
165 200
165 203
165 217
165 220
165 235
165 236
165 238
166 167
166 176
166 184
166 200
166 203
166 217
166 220
166 235
166 236
166 238
167 176
167 184
167 200
167 203
167 220
168 169
168 170
168 171
168 172
168 173
168 174
168 175
168 186
168 195
168 204
168 205
168 212
168 221
168 222
168 240
168 242
169 170
169 171
169 172
169 173
169 174
169 175
169 186
169 195
169 204
169 205
169 212
169 221
169 222
169 240
169 242
170 171
170 172
170 173
170 174
170 175
170 242
171 172
171 173
171 174
171 175
171 201
171 211
171 213
171 214
171 215
171 216
171 217
171 218
171 219
171 225
171 227
171 229
171 231
171 234
171 239
171 242
171 245
172 173
172 174
172 175
172 196
172 197
172 199
172 208
172 226
172 228
172 242
173 174
173 175
173 188
173 191
173 211
173 213
173 214
173 215
173 216
173 217
173 218
173 219
173 225
173 227
173 229
173 242
173 246
174 175
174 242
175 211
175 213
175 214
175 215
175 216
175 217
175 218
175 219
175 225
175 227
175 229
175 242
176 184
176 200
176 203
176 220
177 178
177 180
177 182
177 183
177 185
177 196
177 197
177 199
177 201
177 213
177 216
177 218
177 231
177 234
177 239
178 180
178 182
178 183
178 185
178 196
178 197
178 199
178 201
178 213
178 216
178 218
178 231
178 234
178 239
179 181
179 188
179 191
179 192
179 194
179 198
179 202
179 211
179 214
179 215
179 217
179 219
179 230
179 232
179 233
179 235
179 236
179 237
179 238
179 242
179 244
180 182
180 183
180 185
180 196
180 197
180 199
180 201
180 213
180 216
180 218
180 231
180 234
180 239
181 188
181 191
181 192
181 194
181 198
181 202
181 211
181 214
181 215
181 217
181 219
181 230
181 232
181 233
181 235
181 236
181 237
181 238
181 242
181 244
182 183
182 185
182 196
182 197
182 199
182 201
182 213
182 216
182 218
182 231
182 234
182 239
183 185
183 196
183 197
183 199
183 201
183 213
183 216
183 218
183 231
183 234
183 239
184 186
184 187
184 188
184 189
184 190
184 193
184 195
184 200
184 203
184 204
184 205
184 206
184 207
184 220
184 224
184 243
185 196
185 197
185 199
185 201
185 213
185 216
185 218
185 231
185 234
185 238
185 239
186 187
186 188
186 189
186 190
186 193
186 195
186 200
186 203
186 204
186 205
186 206
186 207
186 212
186 221
186 222
186 240
187 188
187 189
187 190
187 193
187 195
187 200
187 203
187 204
187 205
187 206
187 207
188 189
188 191
188 192
188 194
188 195
188 200
188 203
188 204
188 205
188 206
188 207
188 220
188 224
188 227
188 243
188 246
189 190
189 193
189 195
189 200
189 203
189 204
189 205
189 206
189 207
189 220
189 224
189 243
190 193
191 192
191 194
191 227
191 246
192 194
192 209
192 240
192 241
192 243
192 247
193 198
193 201
193 202
193 209
193 210
195 200
195 203
195 204
195 205
195 206
195 207
195 212
195 221
195 222
195 240
196 197
196 199
196 201
196 208
196 213
196 216
196 218
196 226
196 231
196 234
196 239
197 199
197 201
197 208
197 213
197 216
197 218
197 226
197 231
197 234
197 239
198 201
198 202
198 209
198 210
198 211
198 214
198 215
198 217
198 219
198 230
198 232
198 233
198 235
198 236
198 237
198 238
198 242
198 244
199 201
199 208
199 213
199 216
199 218
199 226
199 231
199 234
199 239
200 203
200 204
200 205
200 206
200 207
200 217
200 220
200 224
200 235
200 236
200 238
200 243
201 202
201 209
201 210
201 213
201 216
201 218
201 225
201 231
201 234
201 239
201 245
202 209
202 210
202 211
202 214
202 215
202 217
202 219
202 230
202 232
202 233
202 235
202 236
202 237
202 238
202 242
202 244
203 204
203 205
203 206
203 207
203 220
203 224
203 243
204 205
204 206
204 207
204 212
204 221
204 222
204 240
205 206
205 207
205 212
205 221
205 222
205 240
206 207
207 220
207 224
207 243
208 226
209 210
209 240
209 241
209 243
209 247
211 213
211 214
211 215
211 216
211 217
211 218
211 219
211 225
211 227
211 229
211 230
211 232
211 233
211 235
211 236
211 237
211 238
211 242
211 244
212 220
212 221
212 222
212 223
212 224
212 226
212 228
212 240
212 241
212 243
213 214
213 215
213 216
213 217
213 218
213 219
213 225
213 227
213 229
213 231
213 234
213 239
213 245
214 215
214 216
214 217
214 218
214 219
214 225
214 227
214 229
214 230
214 232
214 233
214 235
214 236
214 237
214 238
214 242
214 244
215 216
215 217
215 218
215 219
215 225
215 227
215 229
215 230
215 232
215 233
215 235
215 236
215 237
215 238
215 242
215 244
216 217
216 218
216 219
216 225
216 227
216 229
216 231
216 234
216 239
216 245
217 218
217 219
217 225
217 227
217 229
217 230
217 232
217 233
217 235
217 236
217 237
217 238
217 242
217 244
218 219
218 225
218 227
218 229
218 231
218 234
218 239
218 245
219 225
219 227
219 229
219 230
219 232
219 233
219 235
219 236
219 237
219 238
219 242
219 244
220 221
220 222
220 223
220 224
220 226
220 228
220 240
220 241
220 243
221 222
221 223
221 224
221 226
221 228
221 240
221 241
221 243
222 223
222 224
222 226
222 228
222 240
222 241
222 243
223 224
223 226
223 228
223 240
223 241
223 243
224 226
224 228
224 240
224 241
224 243
225 227
225 229
225 231
225 234
225 239
225 245
226 228
226 240
226 241
226 243
227 229
227 246
228 240
228 241
228 243
230 232
230 233
230 235
230 236
230 237
230 238
230 242
230 244
231 234
231 239
231 245
232 233
232 235
232 236
232 237
232 238
232 242
232 244
233 235
233 236
233 237
233 238
233 242
233 244
234 239
234 245
235 236
235 237
235 238
235 242
235 244
236 237
236 238
236 242
236 244
237 238
237 242
237 244
238 239
238 242
238 244
239 245
240 241
240 243
240 247
241 243
241 247
242 244
243 247
0
1 2
3 4
5 6
7
8
9
10
11 12
13 14
15 16
17
18 19
20
21 22
23
24
25
26
27
28 29
30 31
32
33 34
35 36
37
38
39
40
41
42
43 44
45
46 47
48
49
50 51
52 53
54 55
56 57
58
59
60
61 62
63
64
65
66
67
68
69
70
71 72
73
74 75
76 77
78
79
80
81 82
83
84
85 86
87 88
89 90
91
92 93
94
95
96
97
98
99 100
101
102
103
104
105
106 107
108
109
110
111
112 113
114
115 116
117
118
119
120 121
122 123
124
125 126
127 128
129
130
131 132
133
134
135 136
137 138
139 140
141
142 143
144
145
146 147
148 149
150
151 152
153
154
155
156 157
158
159
160
161
162
163 164
165
166
167
168
169
170
171 172
173
174
175 176
177
178 179
180 181
182
183
184
185
186
187
188 189
190 191
192
193 194
195 196
197
198
199
200 201
202 203
204
205
206
207
208
209
210
211 212
213 214
215
216
217 218
219 220
221
222
223
224
225 226
227 228
229
230 231
232
233 234
235
236
237
238 239
240
241 242
243 244
245
246
247
